clingo version 5.6.2
Reading from ...gen_asp_scripts/ijp_expt_cases-1022.dl
Solving...
Progression : [1;inf]
Progression : [2;inf]
UNSATISFIABLE

Models       : 0
Bounds       : [2;*]
Calls        : 1
Time         : 6.347s (Solving: 5.28s 1st Model: 0.00s Unsat: 5.28s)
CPU Time     : 68.477s
Threads      : 64       (Winner: 45)
